c colouring generated by benchmark framework
p edge 450 9757
v 1 4
v 2 4
v 3 7
v 4 9
v 5 7
v 6 0
v 7 6
v 8 3
v 9 7
v 10 8
v 11 0
v 12 10
v 13 2
v 14 7
v 15 9
v 16 0
v 17 0
v 18 7
v 19 3
v 20 12
v 21 6
v 22 11
v 23 2
v 24 1
v 25 7
v 26 0
v 27 11
v 28 2
v 29 1
v 30 4
v 31 8
v 32 0
v 33 2
v 34 8
v 35 12
v 36 4
v 37 6
v 38 3
v 39 1
v 40 8
v 41 4
v 42 0
v 43 9
v 44 7
v 45 5
v 46 11
v 47 6
v 48 5
v 49 12
v 50 5
v 51 9
v 52 2
v 53 1
v 54 9
v 55 8
v 56 4
v 57 0
v 58 2
v 59 9
v 60 10
v 61 7
v 62 3
v 63 10
v 64 9
v 65 9
v 66 10
v 67 5
v 68 2
v 69 9
v 70 12
v 71 6
v 72 3
v 73 1
v 74 2
v 75 8
v 76 4
v 77 11
v 78 2
v 79 5
v 80 10
v 81 11
v 82 0
v 83 3
v 84 1
v 85 8
v 86 11
v 87 3
v 88 8
v 89 1
v 90 10
v 91 5
v 92 11
v 93 2
v 94 8
v 95 8
v 96 6
v 97 6
v 98 3
v 99 7
v 100 5
v 101 6
v 102 3
v 103 5
v 104 1
v 105 7
v 106 4
v 107 0
v 108 1
v 109 1
v 110 7
v 111 5
v 112 11
v 113 2
v 114 1
v 115 12
v 116 8
v 117 11
v 118 3
v 119 7
v 120 8
v 121 5
v 122 11
v 123 2
v 124 1
v 125 12
v 126 0
v 127 10
v 128 9
v 129 7
v 130 8
v 131 9
v 132 0
v 133 7
v 134 1
v 135 10
v 136 0
v 137 11
v 138 2
v 139 8
v 140 10
v 141 0
v 142 0
v 143 1
v 144 8
v 145 10
v 146 0
v 147 0
v 148 2
v 149 8
v 150 8
v 151 11
v 152 6
v 153 3
v 154 7
v 155 5
v 156 11
v 157 11
v 158 3
v 159 1
v 160 9
v 161 4
v 162 11
v 163 11
v 164 12
v 165 10
v 166 5
v 167 0
v 168 2
v 169 9
v 170 1
v 171 11
v 172 11
v 173 2
v 174 9
v 175 8
v 176 0
v 177 6
v 178 2
v 179 1
v 180 12
v 181 6
v 182 3
v 183 2
v 184 12
v 185 8
v 186 10
v 187 10
v 188 0
v 189 1
v 190 10
v 191 8
v 192 6
v 193 0
v 194 1
v 195 10
v 196 4
v 197 0
v 198 3
v 199 1
v 200 9
v 201 6
v 202 11
v 203 2
v 204 8
v 205 7
v 206 6
v 207 6
v 208 3
v 209 7
v 210 4
v 211 11
v 212 0
v 213 11
v 214 12
v 215 9
v 216 6
v 217 6
v 218 3
v 219 7
v 220 8
v 221 4
v 222 0
v 223 1
v 224 7
v 225 12
v 226 4
v 227 4
v 228 2
v 229 7
v 230 8
v 231 0
v 232 3
v 233 2
v 234 1
v 235 5
v 236 12
v 237 4
v 238 2
v 239 7
v 240 8
v 241 0
v 242 11
v 243 7
v 244 7
v 245 9
v 246 0
v 247 5
v 248 2
v 249 10
v 250 10
v 251 11
v 252 6
v 253 2
v 254 2
v 255 12
v 256 0
v 257 11
v 258 3
v 259 1
v 260 1
v 261 0
v 262 11
v 263 2
v 264 1
v 265 2
v 266 0
v 267 6
v 268 4
v 269 1
v 270 12
v 271 11
v 272 11
v 273 1
v 274 12
v 275 7
v 276 4
v 277 6
v 278 1
v 279 5
v 280 12
v 281 6
v 282 6
v 283 5
v 284 7
v 285 7
v 286 10
v 287 9
v 288 3
v 289 1
v 290 9
v 291 0
v 292 3
v 293 2
v 294 9
v 295 6
v 296 0
v 297 6
v 298 2
v 299 1
v 300 8
v 301 8
v 302 10
v 303 12
v 304 8
v 305 10
v 306 6
v 307 3
v 308 3
v 309 8
v 310 10
v 311 4
v 312 0
v 313 2
v 314 1
v 315 10
v 316 4
v 317 11
v 318 7
v 319 8
v 320 10
v 321 4
v 322 3
v 323 12
v 324 1
v 325 12
v 326 6
v 327 0
v 328 2
v 329 7
v 330 10
v 331 7
v 332 6
v 333 3
v 334 7
v 335 12
v 336 9
v 337 11
v 338 2
v 339 1
v 340 12
v 341 0
v 342 11
v 343 5
v 344 4
v 345 8
v 346 5
v 347 11
v 348 2
v 349 5
v 350 8
v 351 5
v 352 0
v 353 2
v 354 1
v 355 9
v 356 4
v 357 4
v 358 2
v 359 1
v 360 10
v 361 0
v 362 4
v 363 2
v 364 9
v 365 10
v 366 5
v 367 11
v 368 1
v 369 1
v 370 10
v 371 0
v 372 6
v 373 7
v 374 1
v 375 9
v 376 0
v 377 0
v 378 3
v 379 1
v 380 12
v 381 0
v 382 11
v 383 1
v 384 8
v 385 12
v 386 10
v 387 4
v 388 1
v 389 12
v 390 12
v 391 6
v 392 11
v 393 4
v 394 12
v 395 12
v 396 6
v 397 10
v 398 2
v 399 9
v 400 8
v 401 9
v 402 0
v 403 2
v 404 1
v 405 4
v 406 0
v 407 3
v 408 1
v 409 5
v 410 12
v 411 6
v 412 2
v 413 2
v 414 1
v 415 5
v 416 4
v 417 12
v 418 2
v 419 6
v 420 9
v 421 7
v 422 4
v 423 2
v 424 7
v 425 9
v 426 4
v 427 0
v 428 3
v 429 8
v 430 12
v 431 6
v 432 6
v 433 7
v 434 7
v 435 9
v 436 6
v 437 11
v 438 3
v 439 5
v 440 1
v 441 6
v 442 11
v 443 2
v 444 1
v 445 8
v 446 4
v 447 6
v 448 2
v 449 1
v 450 12
